unsat
(:conflicts            1
 :max-generation       1
 :max-memory           24.08
 :memory               21.16
 :mk-bool-var          2115
 :mk-clause            210
 :mk-clause-binary     1116
 :num-allocs           6719604
 :num-checks           1
 :quant-instantiations 234
 :rlimit-count         114666
 :time                 0.02)
